183	32	4	164	
10	10	10	10

0	0	0	0	0	0	1	1
1	1	1	0	1	4	1	2
2	0	3	1	5	10	1	3
3	3	7	6	0	10	1	4
4	0	3	4	4	3	2	30	5
5	4	4	2	0	3	1	6
6	5	5	6	0	1	1	7
7	3	3	6	0	3	1	8
8	5	6	0	3	2	2	12	9
9	0	6	2	4	5	1	10
10	6	6	0	2	10	1	11
11	3	3	0	4	4	1	13
12	4	0	3	4	4	1	13
13	0	2	3	2	5	1	14
14	5	0	3	4	9	2	29	15
15	1	0	4	3	10	1	16
16	4	6	0	7	2	1	17
17	4	2	0	2	6	1	18
18	8	0	7	7	4	1	19
19	0	5	4	3	7	1	20
20	0	3	2	7	7	1	21
21	2	0	3	5	5	1	22
22	3	0	6	5	10	1	23
23	5	6	0	4	10	1	24
24	6	5	0	6	9	1	25
25	4	0	3	4	5	1	26
26	4	0	3	2	5	1	27
27	0	4	5	2	6	1	28
28	0	2	5	2	9	1	31
29	4	1	6	0	5	1	31
30	4	5	0	8	10	1	31
31	0	0	0	0	0	0
